50
[5,6,7,8,9,10,11,12,13,14,15,16,17,18,19,20,21,22,23,24,25,26,27,28,29,30,31,32,33,34,35,36,37,38,39,40]
[28,30,25,28,28,20,34,27,30,40,26,26,23,29,24,33,34,18,30,38,15,30,30,28,29,25,25,28,21,31,30,23,26,30,32,26]
